50
2 0 1
3 2 7
4 2 8
5 0 7
5 1 8
5 2 8
5 3 6
5 4 8
6 3 7
6 5 8
7 1 1
7 2 1
7 3 3
7 5 5
7 6 7
8 0 6
8 2 4
9 1 9
9 2 5
9 8 1
10 0 9
10 2 2
10 4 5
10 5 3
10 6 4
10 8 8
11 0 9
11 5 8
11 9 1
11 10 2
12 1 4
12 3 4
12 4 3
12 6 3
12 8 2
12 9 4
12 11 3
13 1 8
13 2 9
13 4 10
13 6 10
13 7 5
13 10 2
13 12 10
14 0 9
14 1 6
14 3 10
14 4 4
14 6 4
14 8 4
14 10 8
14 11 3
14 12 5
15 2 7
15 3 3
15 5 3
15 7 3
15 9 4
15 10 3
15 11 8
15 12 4
15 14 4
16 0 1
16 1 5
16 3 10
16 4 8
16 5 5
16 6 3
16 9 1
16 10 7
16 12 5
16 13 8
16 14 4
16 15 9
17 0 3
17 1 1
17 4 5
17 7 3
17 9 7
17 10 6
17 11 4
17 12 8
17 15 4
17 16 8
18 0 8
18 2 3
18 3 8
18 6 3
18 7 6
18 9 5
18 11 7
18 13 7
18 14 6
18 16 4
18 17 7
19 0 2
19 4 7
19 7 3
19 8 2
19 9 4
19 11 2
19 13 7
19 16 9
19 18 2
20 0 7
20 1 1
20 2 4
20 3 6
20 6 6
20 7 2
20 11 9
20 16 1
20 18 9
21 1 1
21 2 5
21 4 2
21 6 4
21 7 3
21 8 9
21 9 1
21 10 8
21 11 2
21 12 10
21 13 10
21 15 6
21 16 4
21 17 6
21 18 1
22 1 8
22 2 4
22 5 6
22 6 3
22 9 1
22 10 10
22 11 9
22 12 1
22 15 8
22 19 5
23 0 6
23 1 4
23 4 8
23 6 3
23 7 3
23 9 9
23 10 10
23 11 7
23 12 7
23 14 7
23 16 5
23 17 10
23 18 2
23 20 8
23 21 4
23 22 10
24 0 10
24 3 9
24 7 7
24 8 5
24 9 6
24 10 6
24 12 7
24 13 4
24 14 2
24 16 10
24 18 10
24 19 5
24 20 10
24 22 10
24 23 8
25 1 10
25 3 10
25 4 3
25 6 10
25 7 3
25 8 4
25 9 2
25 12 8
25 14 5
25 16 10
25 21 6
25 24 8
26 0 9
26 2 6
26 3 1
26 6 6
26 7 2
26 13 6
26 14 4
26 16 9
26 20 7
26 25 1
27 0 4
27 2 4
27 4 9
27 5 3
27 8 5
27 9 3
27 10 9
27 13 5
27 16 10
27 17 3
27 18 2
27 19 6
27 21 6
27 22 9
27 23 9
27 26 5
28 4 5
28 5 4
28 6 1
28 7 9
28 8 1
28 9 6
28 11 9
28 14 7
28 15 7
28 17 5
28 20 5
28 22 6
28 23 7
28 27 8
29 2 8
29 3 7
29 4 6
29 5 6
29 6 10
29 7 3
29 8 6
29 9 9
29 11 3
29 12 9
29 13 1
29 15 1
29 18 1
29 19 5
29 20 3
29 21 3
30 0 6
30 1 8
30 2 1
30 3 2
30 5 9
30 7 7
30 9 10
30 10 5
30 13 7
30 14 3
30 16 8
30 17 6
30 19 10
30 21 4
30 22 4
30 23 2
30 24 1
30 26 9
30 27 7
30 29 8
31 0 10
31 3 5
31 5 9
31 7 2
31 10 10
31 12 2
31 13 10
31 14 7
31 15 9
31 17 7
31 19 8
31 20 5
31 21 10
31 23 4
31 24 5
31 26 7
31 27 6
31 28 5
32 1 1
32 3 8
32 4 2
32 6 9
32 7 5
32 8 3
32 13 2
32 15 5
32 16 4
32 17 3
32 18 7
32 19 4
32 22 2
32 23 5
32 24 1
32 25 5
32 27 9
32 28 5
32 30 6
32 31 8
33 0 4
33 2 4
33 3 4
33 6 9
33 7 1
33 11 7
33 12 9
33 13 3
33 14 10
33 16 1
33 17 2
33 18 8
33 19 4
33 20 6
33 21 6
33 25 1
33 26 3
33 27 3
33 28 2
33 30 8
33 31 8
33 32 10
34 0 7
34 2 3
34 3 3
34 4 7
34 8 7
34 9 8
34 10 6
34 11 9
34 14 7
34 15 7
34 17 5
34 18 7
34 21 1
34 22 4
34 25 5
34 26 7
34 32 3
34 33 7
35 0 8
35 2 9
35 6 2
35 7 6
35 11 6
35 12 4
35 15 5
35 23 1
35 27 6
35 28 8
35 29 6
35 30 8
35 31 4
35 33 10
35 34 6
36 0 6
36 1 10
36 3 1
36 5 8
36 6 4
36 7 1
36 8 6
36 9 7
36 10 6
36 11 5
36 12 3
36 13 10
36 14 9
36 16 10
36 19 8
36 21 10
36 22 9
36 23 10
36 24 10
36 27 7
36 29 9
36 31 10
36 34 9
36 35 7
37 1 5
37 2 9
37 3 9
37 6 9
37 11 10
37 12 9
37 14 7
37 16 5
37 17 1
37 18 5
37 19 4
37 20 5
37 23 1
37 25 1
37 27 5
37 30 8
37 33 4
37 34 9
37 35 7
37 36 10
38 0 7
38 1 8
38 2 10
38 3 6
38 4 7
38 5 3
38 6 7
38 10 10
38 11 6
38 12 1
38 13 5
38 14 8
38 15 1
38 18 6
38 19 9
38 21 1
38 22 2
38 23 5
38 25 1
38 26 5
38 27 10
38 28 7
38 29 3
38 31 6
38 32 10
38 34 6
38 35 7
38 36 4
38 37 4
39 0 5
39 1 8
39 2 7
39 3 10
39 5 7
39 11 1
39 12 6
39 13 9
39 15 2
39 18 4
39 20 7
39 21 5
39 22 3
39 23 1
39 25 8
39 27 2
39 28 5
39 31 3
39 33 5
39 34 2
39 35 10
39 36 6
39 37 2
40 0 7
40 2 6
40 4 5
40 5 7
40 7 3
40 11 3
40 13 5
40 14 4
40 17 4
40 19 6
40 20 4
40 21 9
40 24 1
40 26 10
40 27 6
40 29 1
40 32 10
40 33 3
40 34 4
40 35 7
40 36 5
40 37 7
40 38 5
40 39 3
41 0 2
41 1 3
41 2 8
41 3 10
41 4 4
41 5 8
41 6 4
41 7 7
41 8 7
41 10 1
41 11 4
41 12 6
41 13 4
41 14 9
41 15 5
41 16 4
41 17 4
41 19 5
41 21 10
41 22 3
41 23 10
41 24 6
41 25 3
41 26 3
41 27 2
41 29 9
41 31 2
41 32 1
41 33 8
41 34 9
41 35 4
41 36 3
41 38 4
41 39 8
41 40 8
42 0 3
42 1 3
42 2 9
42 5 8
42 8 8
42 9 8
42 10 8
42 13 6
42 16 9
42 17 6
42 18 5
42 19 10
42 21 4
42 22 9
42 24 4
42 25 6
42 26 9
42 29 2
42 30 5
42 33 8
42 34 5
42 35 2
42 37 3
42 40 9
42 41 1
43 1 6
43 4 2
43 5 1
43 8 1
43 11 2
43 12 3
43 14 6
43 15 9
43 16 10
43 17 5
43 21 7
43 22 1
43 27 9
43 28 10
43 29 5
43 32 2
43 33 5
43 34 3
43 37 6
43 38 8
43 40 6
43 41 5
44 0 9
44 1 6
44 3 3
44 11 6
44 12 10
44 13 9
44 14 9
44 16 1
44 19 10
44 20 8
44 22 7
44 24 7
44 25 2
44 27 5
44 28 7
44 30 5
44 31 4
44 32 3
44 33 8
44 34 1
44 35 4
44 37 3
44 41 8
44 42 10
45 2 6
45 3 2
45 4 3
45 5 9
45 7 7
45 10 3
45 16 7
45 20 7
45 22 6
45 23 5
45 24 4
45 27 4
45 28 5
45 30 4
45 32 9
45 33 6
45 36 3
45 37 6
45 39 8
45 42 6
46 0 4
46 1 6
46 2 5
46 3 2
46 4 7
46 6 2
46 8 5
46 9 4
46 10 4
46 11 10
46 12 7
46 14 5
46 15 6
46 17 10
46 18 4
46 20 1
46 25 2
46 27 7
46 28 2
46 29 8
46 30 4
46 31 2
46 32 3
46 34 1
46 36 3
46 37 6
46 38 2
46 39 10
46 40 2
46 42 4
46 45 6
47 0 4
47 1 3
47 2 5
47 5 5
47 6 7
47 7 9
47 11 6
47 14 3
47 15 10
47 16 6
47 19 4
47 20 5
47 21 1
47 22 4
47 23 1
47 24 1
47 27 6
47 30 5
47 31 7
47 32 6
47 33 7
47 35 4
47 37 3
47 40 4
47 41 5
47 42 4
47 43 1
47 45 2
47 46 4
48 1 7
48 2 4
48 5 5
48 6 4
48 7 10
48 10 6
48 11 9
48 13 1
48 14 5
48 15 2
48 16 1
48 17 2
48 24 2
48 25 4
48 26 9
48 27 7
48 29 10
48 30 8
48 31 10
48 32 1
48 35 3
48 36 6
48 39 8
48 40 4
48 41 9
48 42 5
48 43 2
48 46 7
48 47 9
49 0 9
49 1 5
49 2 10
49 3 2
49 5 2
49 6 2
49 7 5
49 9 8
49 12 4
49 13 2
49 14 5
49 15 2
49 18 1
49 19 7
49 21 3
49 22 7
49 24 6
49 25 9
49 26 5
49 27 5
49 28 9
49 29 1
49 30 6
49 31 1
49 32 7
49 33 4
49 34 5
49 37 5
49 38 3
49 40 8
49 43 7
49 45 10
49 46 6
